succeed=True
[CUDA] cuda: usage: 5.74 GB
0 :  {link #0 : 1}, {link #1 : 2}, {link #2 : 3},
1 :  {link #0 : 2}, {link #1 : 3}, {link #2 : 0},
2 :  {link #0 : 3}, {link #1 : 0}, {link #2 : 1},
3 :  {link #0 : 0}, {link #1 : 1}, {link #2 : 2},
0 :  {link #0 : 1}, {link #1 : 2}, {link #2 : 3},
1 :  {link #0 : 2}, {link #1 : 3}, {link #2 : 0},
2 :  {link #0 : 3}, {link #1 : 0}, {link #2 : 1},
3 :  {link #0 : 0}, {link #1 : 1}, {link #2 : 2},
0 :  {link #0 : 1}, {link #1 : 2}, {link #2 : 3},
1 :  {link #0 : 2}, {link #1 : 3}, {link #2 : 0},
2 :  {link #0 : 3}, {link #1 : 0}, {link #2 : 1},
3 :  {link #0 : 0}, {link #1 : 1}, {link #2 : 2},
0 : local 80, cpu 0 {link #0 : g1 0}, {link #1 : g2 0}, {link #2 : g3 0},
1 : local 80, cpu 0 {link #0 : g2 0}, {link #1 : g3 0}, {link #2 : g0 0},
2 : local 80, cpu 0 {link #0 : g3 0}, {link #1 : g0 0}, {link #2 : g1 0},
3 : local 80, cpu 0 {link #0 : g0 0}, {link #1 : g1 0}, {link #2 : g2 0},
0 : local 80, cpu 0 {link #0 : g1 0}, {link #1 : g2 0}, {link #2 : g3 0},
1 : local 80, cpu 0 {link #0 : g2 0}, {link #1 : g3 0}, {link #2 : g0 0},
2 : local 80, cpu 0 {link #0 : g3 0}, {link #1 : g0 0}, {link #2 : g1 0},
3 : local 80, cpu 0 {link #0 : g0 0}, {link #1 : g1 0}, {link #2 : g2 0},
0 : local 80, cpu 0 {link #0 : g1 0}, {link #1 : g2 0}, {link #2 : g3 0},
1 : local 80, cpu 0 {link #0 : g2 0}, {link #1 : g3 0}, {link #2 : g0 0},
2 : local 80, cpu 0 {link #0 : g3 0}, {link #1 : g0 0}, {link #2 : g1 0},
3 : local 80, cpu 0 {link #0 : g0 0}, {link #1 : g1 0}, {link #2 : g2 0},
0 :  {link #0 : 1}, {link #1 : 2}, {link #2 : 3},
1 :  {link #0 : 2}, {link #1 : 3}, {link #2 : 0},
2 :  {link #0 : 3}, {link #1 : 0}, {link #2 : 1},
3 :  {link #0 : 0}, {link #1 : 1}, {link #2 : 2},
0 : local 80, cpu 0 {link #0 : g1 0}, {link #1 : g2 0}, {link #2 : g3 0},
1 : local 80, cpu 0 {link #0 : g2 0}, {link #1 : g3 0}, {link #2 : g0 0},
2 : local 80, cpu 0 {link #0 : g3 0}, {link #1 : g0 0}, {link #2 : g1 0},
3 : local 80, cpu 0 {link #0 : g0 0}, {link #1 : g1 0}, {link #2 : g2 0},
Set parameter WLSAccessID
Set parameter WLSSecret
Set parameter LicenseID
Set parameter TimeLimit to value 200
Set parameter MIPGap to value 0.05
Set parameter LogFile to value "cppsolver.log"
Set parameter Threads to value 40
Academic license - for non-commercial use only - registered to xiaoniu.sxn@sjtu.edu.cn
Gurobi Optimizer version 9.5.1 build v9.5.1rc2 (linux64)
Thread count: 40 physical cores, 80 logical processors, using up to 40 threads
Academic license - for non-commercial use only - registered to xiaoniu.sxn@sjtu.edu.cn
Optimize a model with 9332 rows, 3048 columns and 25084 nonzeros
Model fingerprint: 0xcbd51759
Variable types: 5 continuous, 3043 integer (3043 binary)
Coefficient statistics:
  Matrix range     [2e-09, 6e+02]
  Objective range  [1e+00, 1e+00]
  Bounds range     [1e+00, 1e+00]
  RHS range        [1e+00, 1e+02]
Found heuristic solution: objective 5638.0957098
Presolve removed 6736 rows and 294 columns
Presolve time: 0.03s
Presolved: 2596 rows, 2754 columns, 7776 nonzeros
Found heuristic solution: objective 5443.4778849
Variable types: 0 continuous, 2754 integer (2754 binary)

Root relaxation: objective 3.396192e+03, 2018 iterations, 0.01 seconds (0.01 work units)

    Nodes    |    Current Node    |     Objective Bounds      |     Work
 Expl Unexpl |  Obj  Depth IntInf | Incumbent    BestBd   Gap | It/Node Time

     0     0 3396.19156    0   21 5443.47788 3396.19156  37.6%     -    0s
H    0     0                    3444.8013636 3396.19156  1.41%     -    0s

Explored 1 nodes (3253 simplex iterations) in 0.08 seconds (0.05 work units)
Thread count was 40 (of 80 available processors)

Solution count 3: 3444.8 5443.48 5638.1 

Optimal solution found (tolerance 5.00e-02)
Best objective 3.444801363553e+03, best bound 3.396191563812e+03, gap 1.4111%
coll_cache:optimal_local_rate=0.111338,0.124732,0.144389,0.11065,
coll_cache:optimal_remote_rate=0.366142,0.352749,0.333092,0.366831,
coll_cache:optimal_cpu_rate=0.522519,0.522519,0.522519,0.522519,
z=3444.8
test_result:init:feat_nbytes=375030526464
test_result:init:cache_nbytes=4125335040
test_result:init:feat_nbytes=375030526464
test_result:init:cache_nbytes=4125335040
test_result:init:feat_nbytes=375030526464
test_result:init:cache_nbytes=4125335040
test_result:init:feat_nbytes=375030526464
test_result:init:cache_nbytes=4125335040
    [Step(average) Profiler Level 1 E3 S999]
        L1  sample           0.001501 | send           0.000000
        L1  recv             0.000000 | copy           0.016988 | convert time 0.000000 | train  0.010622
        L1  feature nbytes  357.17 MB | label nbytes 0.00 Bytes
        L1  id nbytes      0.00 Bytes | graph nbytes 0.00 Bytes
        L1  miss nbytes    0.00 Bytes | remote nbytes 0.00 Bytes
        L1  num nodes               0 | num samples           0
        L1  seq duration     0.000000 | refresh duration   0.000000
    [Step(average) Profiler Level 2 E3 S999]
        L2  shuffle     0.000000 | core sample  0.000000 | id remap        0.000000
        L2  graph copy  0.000000 | id copy      0.000000 | cache feat copy 0.016988
        L2  last layer sample time 0.000000 | size 0.000000
    [Step(average) Profiler Level 3 E3 S999]
        L3  khop sample coo  0.000000 | khop sort coo      0.000000 | khop count edge     0.000000 | khop compact edge 0.000000
        L3  walk sample coo  0.000000 | walk topk total    0.000000 | walk topk step1     0.000000 | walk topk step2   0.000000
        L3  walk topk step3  0.000000 | walk topk step4    0.000000 | walk topk step5     0.000000
        L3  walk topk step6  0.000000 | walk topk step7    0.000000
        L3  remap unique     0.000000 | remap populate     0.000000 | remap mapnode       0.000000 | remap mapedge     0.000000
        L3  cache get_index  0.000218 | cache copy_index   0.000000 | cache extract_miss  0.000000
        L3  cache copy_miss  0.000000 | cache combine_miss 0.000000 | cache combine cache 0.016731 | cache combine remote 0.000000
        L3  label extract  0.000000
    [Profiler Level Percentiles E3 S999]
        p50.00_tail_logl2featcopy=0.017641
        p90.00_tail_logl2featcopy=0.018028
        p95.00_tail_logl2featcopy=0.018119
        p99.00_tail_logl2featcopy=0.018296
        p99.90_tail_logl2featcopy=0.018521
[CUDA] cuda: usage: 11.13 GB
config:eval_tsp="2023-04-14 18:51:21"
config:num_worker=4
config:num_intra_size=4
config:root_dir=/nvme/songxiaoniu/graph-learning/wholegraph
config:graph_name=mag240m-homo
config:epochs=4
config:batchsize=500
config:skip_epoch=2
config:local_step=250
config:presc_epoch=2
config:neighbors=10,25
config:hiddensize=256
config:num_layer=2
config:model=sage
config:framework=dgl
config:dataloaderworkers=0
config:dropout=0.5
config:lr=0.003
config:use_nccl=False
config:use_amp=True
config:use_collcache=True
config:cache_percentage=0.01
config:cache_policy=coll_cache_asymm_link
config:omp_thread_num=40
config:unsupervised=True
config:classnum=153
config:global_barrier=<multiprocessing.synchronize.Barrier object at 0x7ff95eb10460>
config:worker_id=0
creating_intra_node_communicator root=0, local_size=4, world_size=4
Rank=0, Graph loaded.
!!!!dist_homo_graph enumerate latency per epoch: 0.010571, per step: 0.000042
epoch=4 total_steps=1000
presamping
presamping takes 4.0613954067230225
start training...
[Epoch 0], time=8.52422022819519, loss=0.6931472420692444
[Epoch 1], time=7.218095541000366, loss=0.6931472420692444
[Epoch 2], time=7.235873699188232, loss=0.6931472420692444
[Epoch 3], time=7.421427488327026, loss=0.6931472420692444
|===========================================================================|
|                  PyTorch CUDA memory summary, device ID 0                 |
|---------------------------------------------------------------------------|
|            CUDA OOMs: 0            |        cudaMalloc retries: 0         |
|===========================================================================|
|        Metric         | Cur Usage  | Peak Usage | Tot Alloc  | Tot Freed  |
|---------------------------------------------------------------------------|
| Allocated memory      |   31131 KB |  196350 KB |  516423 MB |  516393 MB |
|       from large pool |   18422 KB |  186772 KB |  489516 MB |  489498 MB |
|       from small pool |   12708 KB |   18553 KB |   26906 MB |   26894 MB |
|---------------------------------------------------------------------------|
| Active memory         |   31131 KB |  196350 KB |  516423 MB |  516393 MB |
|       from large pool |   18422 KB |  186772 KB |  489516 MB |  489498 MB |
|       from small pool |   12708 KB |   18553 KB |   26906 MB |   26894 MB |
|---------------------------------------------------------------------------|
| GPU reserved memory   |  636928 KB |  636928 KB |  636928 KB |       0 B  |
|       from large pool |  614400 KB |  614400 KB |  614400 KB |       0 B  |
|       from small pool |   22528 KB |   22528 KB |   22528 KB |       0 B  |
|---------------------------------------------------------------------------|
| Non-releasable memory |  165477 KB |  321473 KB |  483266 MB |  483105 MB |
|       from large pool |  161801 KB |  313672 KB |  455287 MB |  455129 MB |
|       from small pool |    3675 KB |   10791 KB |   27979 MB |   27975 MB |
|---------------------------------------------------------------------------|
| Allocations           |      62    |      81    |  213822    |  213760    |
|       from large pool |      12    |      24    |   52749    |   52737    |
|       from small pool |      50    |      66    |  161073    |  161023    |
|---------------------------------------------------------------------------|
| Active allocs         |      62    |      81    |  213822    |  213760    |
|       from large pool |      12    |      24    |   52749    |   52737    |
|       from small pool |      50    |      66    |  161073    |  161023    |
|---------------------------------------------------------------------------|
| GPU reserved segments |      20    |      20    |      20    |       0    |
|       from large pool |       9    |       9    |       9    |       0    |
|       from small pool |      11    |      11    |      11    |       0    |
|---------------------------------------------------------------------------|
| Non-releasable allocs |      28    |      39    |   84750    |   84722    |
|       from large pool |       8    |      13    |   31678    |   31670    |
|       from small pool |      20    |      31    |   53072    |   53052    |
|---------------------------------------------------------------------------|
| Oversize allocations  |       0    |       0    |       0    |       0    |
|---------------------------------------------------------------------------|
| Oversize GPU segments |       0    |       0    |       0    |       0    |
|===========================================================================|

[TRAIN_TIME] train time is 30.415896 seconds
[EPOCH_TIME] 7.603974 seconds, maybe large due to not enough epoch skipped.
[EPOCH_TIME] 7.328836 seconds
Rank=3, Graph loaded.
!!!!dist_homo_graph enumerate latency per epoch: 0.011094, per step: 0.000044
presamping
presamping takes 6.133252382278442
Rank=2, Graph loaded.
!!!!dist_homo_graph enumerate latency per epoch: 0.009377, per step: 0.000038
presamping
presamping takes 6.67055344581604
Rank=1, Graph loaded.
!!!!dist_homo_graph enumerate latency per epoch: 0.008132, per step: 0.000033
presamping
presamping takes 6.929737329483032

